MARKOV
120
2 2 2 2 2 2 2 2 2 2 2 2 2 2 2 2 2 2 2 2 2 2 2 2 2 2 2 2 2 2 2 2 2 2 2 2 2 2 2 2 2 2 2 2 2 2 2 2 2 2 2 2 2 2 2 2 2 2 2 2 2 2 2 2 2 2 2 2 2 2 2 2 2 2 2 2 2 2 2 2 2 2 2 2 2 2 2 2 2 2 2 2 2 2 2 2 2 2 2 2 2 2 2 2 2 2 2 2 2 2 2 2 2 2 2 2 2 2 2 2 
40
3 0 10 20
3 1 11 21
3 2 12 22
3 3 13 23
3 4 14 24
3 5 15 25
3 6 16 26
3 7 17 27
3 8 18 28
3 9 19 29
3 30 40 50
3 31 41 51
3 32 42 52
3 33 43 53
3 34 44 54
3 35 45 55
3 36 46 56
3 37 47 57
3 38 48 58
3 39 49 59
3 60 70 80
3 61 71 81
3 62 72 82
3 63 73 83
3 64 74 84
3 65 75 85
3 66 76 86
3 67 77 87
3 68 78 88
3 69 79 89
3 90 100 110
3 91 101 111
3 92 102 112
3 93 103 113
3 94 104 114
3 95 105 115
3 96 106 116
3 97 107 117
3 98 108 118
3 99 109 119
8
1.0 1.0 1.0 1.0 1.0 1.0 1.0 2.716
8
1.0 1.0 1.0 1.0 1.0 1.0 1.0 2.716
8
1.0 1.0 1.0 1.0 1.0 1.0 1.0 2.716
8
1.0 1.0 1.0 1.0 1.0 1.0 1.0 2.716
8
1.0 1.0 1.0 1.0 1.0 1.0 1.0 2.716
8
1.0 1.0 1.0 1.0 1.0 1.0 1.0 2.716
8
1.0 1.0 1.0 1.0 1.0 1.0 1.0 2.716
8
1.0 1.0 1.0 1.0 1.0 1.0 1.0 2.716
8
1.0 1.0 1.0 1.0 1.0 1.0 1.0 2.716
8
1.0 1.0 1.0 1.0 1.0 1.0 1.0 2.716
8
1.0 1.0 1.0 1.0 1.0 1.0 1.0 1.264
8
1.0 1.0 1.0 1.0 1.0 1.0 1.0 1.264
8
1.0 1.0 1.0 1.0 1.0 1.0 1.0 1.264
8
1.0 1.0 1.0 1.0 1.0 1.0 1.0 1.264
8
1.0 1.0 1.0 1.0 1.0 1.0 1.0 1.264
8
1.0 1.0 1.0 1.0 1.0 1.0 1.0 1.264
8
1.0 1.0 1.0 1.0 1.0 1.0 1.0 1.264
8
1.0 1.0 1.0 1.0 1.0 1.0 1.0 1.264
8
1.0 1.0 1.0 1.0 1.0 1.0 1.0 1.264
8
1.0 1.0 1.0 1.0 1.0 1.0 1.0 1.264
8
1.0 1.0 1.0 1.0 1.0 1.0 1.0 2.088
8
1.0 1.0 1.0 1.0 1.0 1.0 1.0 2.088
8
1.0 1.0 1.0 1.0 1.0 1.0 1.0 2.088
8
1.0 1.0 1.0 1.0 1.0 1.0 1.0 2.088
8
1.0 1.0 1.0 1.0 1.0 1.0 1.0 2.088
8
1.0 1.0 1.0 1.0 1.0 1.0 1.0 2.088
8
1.0 1.0 1.0 1.0 1.0 1.0 1.0 2.088
8
1.0 1.0 1.0 1.0 1.0 1.0 1.0 2.088
8
1.0 1.0 1.0 1.0 1.0 1.0 1.0 2.088
8
1.0 1.0 1.0 1.0 1.0 1.0 1.0 2.088
8
1.0 1.0 1.0 1.0 1.0 1.0 1.0 2.038
8
1.0 1.0 1.0 1.0 1.0 1.0 1.0 2.038
8
1.0 1.0 1.0 1.0 1.0 1.0 1.0 2.038
8
1.0 1.0 1.0 1.0 1.0 1.0 1.0 2.038
8
1.0 1.0 1.0 1.0 1.0 1.0 1.0 2.038
8
1.0 1.0 1.0 1.0 1.0 1.0 1.0 2.038
8
1.0 1.0 1.0 1.0 1.0 1.0 1.0 2.038
8
1.0 1.0 1.0 1.0 1.0 1.0 1.0 2.038
8
1.0 1.0 1.0 1.0 1.0 1.0 1.0 2.038
8
1.0 1.0 1.0 1.0 1.0 1.0 1.0 2.038
